1923629
0,12,53,46,19,47,3,64,44,26,16,1,62,15,58,27,49,35,7,14,57,8,67,52,50,61,38,34,36,43,9,17,13,30,51,56,32,21,37,63,66,6,42,10,33,45,54,25,65,22,48,18,59,28,5,40,24,29,4,23,20,2,60,41,55,39,31,11